100
100
100
100
99
99
98
98
97
96
96
94
94
94
94
93
91
90
89
87
87
87
86
84
84
84
83
82
80
79
75
75
75
74
74
73
73
73
72
71
70
69
69
69
68
68
68
67
65
65
63
63
61
61
61
61
60
60
60
60
60
59
59
58
57
57
56
56
55
54
54
54
51
50
50
49
49
49
49
48
48
48
46
46
44
42
42
41
40
40
38
37
35
35
34
34
33
33
33
33
32
31
